750
75 75
1 60 950
2 60 431
3 60 357
4 60 541
5 60 376
6 60 651
7 60 839
8 60 255
9 60 554
10 60 958
11 59 248
12 59 443
13 59 804
14 59 977
15 59 271
16 59 578
17 59 715
18 59 998
19 59 451
20 59 654
21 59 94
22 59 917
23 59 847
24 59 615
25 59 205
26 59 841
27 59 439
28 59 879
29 59 516
30 59 800
31 59 175
32 59 442
33 58 403
34 58 654
35 58 923
36 58 348
37 58 635
38 58 872
39 58 245
40 58 390
41 58 101
42 58 129
43 58 372
44 58 354
45 58 76
46 58 31
47 58 319
48 58 124
49 57 640
50 57 33
51 57 978
52 57 559
53 57 606
54 57 409
55 57 187
56 57 929
57 57 1000
58 57 461
59 57 38
60 57 377
61 57 436
62 57 800
63 57 855
64 57 813
65 57 95
66 57 190
67 57 518
68 56 666
69 56 959
70 56 496
71 56 400
72 56 180
73 56 255
74 56 332
75 56 541
76 56 994
77 56 510
78 56 633
79 56 899
80 56 767
81 55 111
82 55 892
83 55 769
84 55 715
85 55 134
86 55 688
87 55 130
88 55 297
89 55 955
90 55 775
91 55 682
92 55 701
93 55 835
94 55 433
95 55 726
96 55 191
97 55 236
98 55 168
99 54 10
100 54 293
101 54 776
102 54 836
103 54 85
104 54 14
105 54 732
106 54 582
107 54 228
108 54 643
109 54 372
110 54 221
111 54 667
112 54 592
113 54 772
114 54 862
115 54 504
116 54 786
117 54 821
118 53 969
119 53 1000
120 53 11
121 53 750
122 53 545
123 53 476
124 53 293
125 53 632
126 53 327
127 53 331
128 53 87
129 53 372
130 53 338
131 53 390
132 53 236
133 52 478
134 52 704
135 52 977
136 52 93
137 52 845
138 52 539
139 52 130
140 52 343
141 52 502
142 52 969
143 52 676
144 52 296
145 52 106
146 52 490
147 52 552
148 52 748
149 52 860
150 52 520
151 52 314
152 52 304
153 51 44
154 51 269
155 51 271
156 51 106
157 51 794
158 51 79
159 51 565
160 51 101
161 51 273
162 51 514
163 51 186
164 51 231
165 51 664
166 51 936
167 51 729
168 51 276
169 51 412
170 50 211
171 50 143
172 50 251
173 50 486
174 50 211
175 50 463
176 50 992
177 50 990
178 50 85
179 50 929
180 50 542
181 50 127
182 50 0
183 49 763
184 49 644
185 49 227
186 49 780
187 49 813
188 49 949
189 49 225
190 49 446
191 49 115
192 49 712
193 49 306
194 49 49
195 49 152
196 49 612
197 49 693
198 49 265
199 49 20
200 49 382
201 49 783
202 49 769
203 48 3
204 48 102
205 48 402
206 48 150
207 48 1000
208 48 711
209 48 208
210 48 237
211 48 992
212 48 513
213 48 632
214 48 727
215 48 709
216 48 543
217 48 726
218 48 19
219 48 992
220 48 565
221 48 177
222 48 2
223 47 852
224 47 841
225 47 887
226 47 515
227 47 176
228 47 411
229 47 954
230 47 88
231 47 706
232 47 43
233 47 663
234 47 244
235 47 400
236 47 780
237 47 536
238 47 323
239 47 590
240 46 693
241 46 405
242 46 770
243 46 116
244 46 468
245 46 171
246 46 463
247 46 278
248 46 569
249 46 697
250 46 674
251 46 884
252 46 412
253 46 385
254 46 952
255 46 795
256 46 350
257 46 809
258 46 180
259 46 317
260 46 598
261 46 334
262 45 930
263 45 760
264 45 138
265 45 5
266 45 263
267 45 318
268 45 543
269 45 767
270 45 924
271 45 409
272 45 350
273 45 905
274 45 111
275 45 161
276 44 97
277 44 936
278 44 7
279 44 742
280 44 621
281 44 962
282 44 642
283 44 943
284 44 645
285 44 659
286 44 970
287 44 622
288 44 670
289 44 697
290 44 871
291 44 884
292 44 926
293 44 278
294 44 754
295 43 767
296 43 756
297 43 413
298 43 897
299 43 261
300 43 157
301 43 59
302 42 852
303 42 805
304 42 251
305 42 44
306 42 166
307 42 82
308 42 510
309 42 130
310 42 523
311 42 181
312 42 676
313 42 980
314 42 71
315 41 868
316 41 795
317 41 394
318 41 961
319 41 792
320 41 670
321 41 849
322 41 202
323 41 340
324 41 291
325 41 60
326 41 483
327 41 879
328 41 46
329 41 788
330 41 182
331 41 99
332 41 87
333 41 3
334 41 811
335 40 651
336 40 761
337 40 111
338 40 950
339 40 97
340 40 959
341 40 154
342 40 163
343 40 236
344 40 818
345 40 394
346 40 636
347 40 548
348 40 478
349 40 442
350 40 339
351 40 198
352 40 658
353 40 614
354 40 279
355 40 149
356 39 770
357 39 394
358 39 42
359 39 933
360 39 377
361 39 883
362 39 955
363 39 535
364 39 816
365 38 73
366 38 745
367 38 988
368 38 19
369 38 338
370 38 905
371 38 554
372 38 460
373 38 593
374 38 108
375 38 52
376 38 207
377 38 242
378 38 443
379 38 657
380 38 804
381 38 415
382 38 559
383 38 359
384 38 445
385 38 77
386 38 315
387 37 271
388 37 563
389 37 714
390 37 804
391 37 909
392 37 237
393 37 673
394 37 189
395 37 564
396 37 347
397 37 442
398 37 375
399 37 545
400 36 713
401 36 63
402 36 206
403 36 656
404 36 191
405 36 602
406 36 488
407 36 86
408 36 979
409 36 653
410 36 537
411 36 291
412 36 49
413 36 639
414 36 791
415 36 53
416 36 207
417 36 242
418 36 934
419 36 75
420 35 959
421 35 4
422 35 175
423 35 900
424 35 553
425 35 62
426 35 507
427 35 492
428 34 710
429 34 811
430 34 458
431 34 782
432 34 479
433 34 484
434 34 956
435 34 912
436 34 263
437 34 476
438 34 403
439 34 807
440 34 556
441 34 584
442 34 135
443 34 701
444 33 953
445 33 473
446 33 550
447 33 759
448 33 535
449 33 479
450 33 328
451 33 879
452 33 728
453 33 124
454 33 396
455 33 673
456 33 953
457 33 426
458 33 859
459 33 680
460 33 530
461 33 85
462 32 527
463 32 490
464 32 389
465 32 967
466 32 146
467 32 941
468 32 670
469 32 548
470 32 337
471 32 835
472 32 329
473 32 771
474 32 944
475 32 759
476 32 200
477 32 439
478 31 979
479 31 981
480 31 45
481 31 165
482 31 156
483 31 500
484 31 288
485 31 237
486 31 119
487 31 520
488 31 33
489 31 20
490 31 12
491 31 321
492 31 912
493 31 754
494 31 324
495 31 130
496 30 952
497 30 515
498 30 200
499 30 587
500 30 170
501 30 220
502 30 906
503 30 283
504 30 143
505 30 341
506 30 630
507 30 469
508 30 57
509 30 909
510 30 661
511 30 769
512 30 572
513 30 168
514 30 722
515 30 683
516 30 79
517 30 238
518 30 500
519 29 627
520 29 363
521 29 529
522 29 7
523 29 806
524 29 443
525 29 924
526 29 679
527 29 375
528 29 575
529 29 208
530 29 623
531 29 981
532 29 241
533 28 962
534 28 288
535 28 954
536 28 679
537 28 483
538 28 490
539 28 629
540 28 333
541 28 811
542 28 919
543 28 448
544 28 409
545 28 75
546 28 32
547 28 189
548 28 644
549 28 980
550 28 200
551 28 121
552 28 205
553 27 927
554 27 150
555 27 597
556 27 916
557 27 189
558 27 66
559 27 412
560 27 362
561 27 6
562 26 625
563 26 233
564 26 591
565 26 199
566 26 790
567 26 85
568 26 931
569 26 794
570 26 892
571 26 673
572 26 956
573 26 398
574 26 3
575 26 17
576 26 201
577 25 640
578 25 953
579 25 409
580 25 395
581 25 411
582 25 722
583 25 159
584 25 839
585 25 962
586 25 854
587 25 860
588 24 309
589 24 757
590 24 163
591 24 530
592 24 705
593 24 996
594 24 300
595 24 425
596 24 937
597 24 413
598 24 110
599 24 226
600 24 272
601 23 956
602 23 936
603 23 519
604 23 839
605 23 56
606 23 43
607 23 761
608 23 551
609 23 891
610 23 602
611 23 39
612 23 379
613 23 53
614 23 342
615 23 108
616 23 504
617 23 670
618 23 323
619 23 252
620 23 794
621 23 56
622 22 519
623 22 821
624 22 175
625 22 9
626 22 548
627 22 474
628 22 942
629 22 953
630 21 98
631 21 368
632 21 237
633 21 430
634 21 818
635 21 630
636 21 629
637 21 747
638 21 132
639 21 118
640 21 233
641 21 961
642 21 139
643 21 704
644 21 838
645 21 599
646 21 984
647 21 679
648 20 54
649 20 765
650 20 326
651 20 701
652 20 287
653 20 244
654 20 216
655 20 545
656 20 801
657 20 14
658 20 713
659 20 939
660 20 469
661 20 696
662 20 833
663 20 49
664 20 172
665 20 23
666 19 204
667 19 315
668 19 218
669 19 964
670 19 836
671 19 717
672 19 450
673 19 443
674 19 957
675 19 268
676 19 204
677 19 23
678 18 306
679 18 623
680 18 589
681 18 443
682 18 542
683 18 173
684 18 80
685 18 910
686 18 552
687 18 190
688 18 662
689 18 121
690 18 851
691 18 33
692 18 426
693 17 634
694 17 794
695 17 638
696 17 875
697 17 583
698 17 455
699 17 65
700 17 538
701 17 704
702 17 397
703 17 699
704 17 670
705 17 707
706 17 881
707 17 621
708 17 922
709 17 876
710 17 169
711 17 699
712 17 675
713 17 427
714 17 275
715 17 79
716 17 516
717 17 998
718 16 916
719 16 956
720 16 951
721 16 435
722 16 194
723 16 454
724 16 847
725 16 101
726 16 240
727 16 891
728 16 297
729 16 769
730 16 782
731 16 647
732 16 289
733 15 39
734 15 329
735 15 666
736 15 654
737 15 509
738 15 957
739 15 702
740 15 97
741 15 908
742 15 68
743 15 350
744 15 916
745 15 446
746 15 420
747 15 837
748 15 831
749 15 411
750 15 442
